data;

param n:=27;
param p:=4;
param r:=[1] 0 [2] 4 [3] 1 [4] 3 [5] 2 [6] 15 [7] 0 [8] 16 [9] 20 [10] 10 [11] 31 [12] 10 [13] 41 [14] 7 [15] 11 [16] 0 [17] 15 [18] 63 [19] 2 [20] 5 [21] 62 [22] 68 [23] 16 [24] 59 [25] 30 [26] 67 [27] 7 ;
param w:=[1] 54 [2] 82 [3] 81 [4] 24 [5] 73 [6] 42 [7] 18 [8] 63 [9] 28 [10] 53 [11] 24 [12] 4 [13] 3 [14] 14 [15] 17 [16] 8 [17] 80 [18] 13 [19] 14 [20] 65 [21] 78 [22] 25 [23] 78 [24] 9 [25] 5 [26] 58 [27] 87 ;

end;
